%%% static parameters %%%
timespan = 1;
Fact = [2];
Distr1 = [5];
Distr2 = [10];
Clients_N = [100];
Demand_W = [15];
Lt0 = [4];
Lt1 = [4];
SS_ = [0.85];
DS_D = [8];
K = [200];
MA = [500];
%%% dynamic parameters %%%
lost_ratio_sales_ret_th = 0.16041086571614327;
lost_ratio_sales_ret_w = 91;
lost_ratio_sales_dis_th = 0.6284421785591284;
lost_ratio_sales_dis_w = 87;
lost_ratio_sales_fac_th = 0.7693527840793816;
lost_ratio_sales_fac_w = 95;
stock_customer_MA_mean_relative_th = 0.46807145865526323;
stock_customer_MA_mean_relative_w = 89;
stock_distributor_MA_mean_relative_th = 0.9614131311576837;
stock_distributor_MA_mean_relative_w = 63;
stock_retailer_MA_mean_relative_th = 0.8787601256838791;
stock_retailer_MA_mean_relative_w = 2;
stock_factory_MA_mean_relative_th = 0.6719207012593228;
stock_factory_MA_mean_relative_w = 93;
